40
    56    68    92    64    27    47    46    15    12    88    66    21    60    74    53    28    49    46    87    91    85    93    26    63     2    59     4     3    62    43    36    72    56    94    14    36     2    17     7    61
     5     4     6     9     7    10     8     9    10     5     3     4     5     7     6    10     1     7     6     3     5     4     8    10     3    10     6     9     9     7     1    10     6     9     5     3     5     8     6     8
   355   429   511   168   486   286   141   481   493   478   421   411    77   117   635   178   447   236   337   512   394   488   233   703   456    83   383   120   534   657   320   108   205   276   322   115   193   149   768   364
